objective value:                                  -12
t_n_7                                               1 	(obj:-1)
t_n_146                                             1 	(obj:-1)
t_n_312                                             1 	(obj:-1)
t_n_325                                             1 	(obj:-1)
t_n_450                                             1 	(obj:-1)
t_n_486                                             1 	(obj:-1)
t_n_716                                             1 	(obj:-1)
t_n_756                                             1 	(obj:-1)
t_n_758                                             1 	(obj:-1)
t_n_807                                             1 	(obj:-1)
t_n_855                                             1 	(obj:-1)
t_n_947                                             1 	(obj:-1)
